NAME: tsp25_10
COMMENT: 25-tsp problem (Padberg/Rinaldi)
TYPE: TSP
DIMENSION: 25
EDGE_WEIGHT_TYPE : EUC_2D
NODE_COORD_SECTION
1.00 24.50 23.84
2.00 8.71 16.61
3.00 3.88 38.65
4.00 14.16 3.86
5.00 20.30 37.36
6.00 19.78 6.46
7.00 16.33 36.70
8.00 29.57 25.77
9.00 5.52 14.26
10.00 37.03 5.39
11.00 23.05 10.32
12.00 8.34 38.85
13.00 35.37 22.45
14.00 12.92 5.04
15.00 29.33 2.88
16.00 22.31 38.42
17.00 12.46 8.17
18.00 1.10 12.05
19.00 28.65 15.78
20.00 27.09 31.32
21.00 31.61 22.04
22.00 38.46 31.24
23.00 5.74 22.27
24.00 29.49 1.47
25.00 29.06 38.44
